p cnf 18 58
-2 -3 0
5 -10 -12 -13 -14 0
2 10 -15 -16 0
-5 1 0
-7 3 0
-9 4 0
1 10 -2 0
-1 -10 2 0
1 11 0
1 12 -3 0
-1 -12 3 0
1 13 0
1 14 -4 0
-1 -14 4 0
2 15 0
-2 3 0
2 16 -4 0
-2 -16 4 0
-17 3 0
-18 4 0
3 -4 0
-5 -10 0
5 11 -6 0
-5 -11 6 0
5 12 -7 0
-5 -12 7 0
5 13 -8 0
-5 -13 8 0
5 14 -9 0
-5 -14 9 0
15 -6 0
16 -9 0
6 17 -7 0
-6 -17 7 0
-6 8 0
6 18 -9 0
-6 -18 9 0
-7 8 0
7 -9 0
8 -9 0
10 15 -11 0
-10 -15 11 0
-10 12 0
-10 13 0
10 16 -14 0
-10 -16 14 0
11 17 -12 0
-11 -17 12 0
-11 13 0
11 18 -14 0
-11 -18 14 0
-12 13 0
12 -14 0
13 -14 0
15 17 0
15 18 -16 0
-15 -18 16 0
17 -18 0
